% Instance for pentominoes model generated using https://github.com/zayenz/minizinc-pentominoes-generator
% Instance generated for board size 5 with 5 tiles using 42 as seed
% Generated board
%    31225
%    11145
%    14445
%    44445
%    44555

size = 5;
tiles = 5;
expressions = [
    "( ([2 3 4 5 6]* 1{1} [2 3 4 5 6]{3} [2 3 4 5 6] 1{3} [2 3 4 5 6]{2} [2 3 4 5 6] 1{1}  [2 3 4 5 6]*) | ([2 3 4 5 6]* 1{2} [2 3 4 5 6]{1} [2 3 4 5 6] [2 3 4 5 6]{3} 1{2} [2 3 4 5 6] [2 3 4 5 6]{3} 1{1}  [2 3 4 5 6]*) | ([2 3 4 5 6]* 1{1} [2 3 4 5 6] [2 3 4 5 6]{2} 1{3} [2 3 4 5 6] [2 3 4 5 6]{3} 1{1}  [2 3 4 5 6]*) | ([2 3 4 5 6]* 1{1} [2 3 4 5 6]{3} [2 3 4 5 6] 1{2} [2 3 4 5 6]{3} [2 3 4 5 6] [2 3 4 5 6]{1} 1{2}  [2 3 4 5 6]*) | ([2 3 4 5 6]* 1{1} [2 3 4 5 6]{1} [2 3 4 5 6] [2 3 4 5 6]{2} 1{3} [2 3 4 5 6] [2 3 4 5 6]{4} 1{1}  [2 3 4 5 6]*) | ([2 3 4 5 6]* 1{2} [2 3 4 5 6]{2} [2 3 4 5 6] 1{2} [2 3 4 5 6]{3} [2 3 4 5 6] [2 3 4 5 6]{1} 1{1}  [2 3 4 5 6]*) | ([2 3 4 5 6]* 1{1} [2 3 4 5 6]{4} [2 3 4 5 6] 1{3} [2 3 4 5 6]{2} [2 3 4 5 6] [2 3 4 5 6]{1} 1{1}  [2 3 4 5 6]*) | ([2 3 4 5 6]* 1{1} [2 3 4 5 6]{1} [2 3 4 5 6] [2 3 4 5 6]{3} 1{2} [2 3 4 5 6] [2 3 4 5 6]{2} 1{2}  [2 3 4 5 6]*) )",
    "( ([1 3 4 5 6]* 2{2}  [1 3 4 5 6]*) | ([1 3 4 5 6]* 2{1} [1 3 4 5 6] [1 3 4 5 6]{4} 2{1}  [1 3 4 5 6]*) | ([1 3 4 5 6]* 2{2}  [1 3 4 5 6]*) | ([1 3 4 5 6]* 2{1} [1 3 4 5 6]{4} [1 3 4 5 6] 2{1}  [1 3 4 5 6]*) | ([1 3 4 5 6]* 2{2}  [1 3 4 5 6]*) | ([1 3 4 5 6]* 2{1} [1 3 4 5 6]{4} [1 3 4 5 6] 2{1}  [1 3 4 5 6]*) | ([1 3 4 5 6]* 2{2}  [1 3 4 5 6]*) | ([1 3 4 5 6]* 2{1} [1 3 4 5 6] [1 3 4 5 6]{4} 2{1}  [1 3 4 5 6]*) )",
    "( ([1 2 4 5 6]* 3{1}  [1 2 4 5 6]*) | ([1 2 4 5 6]* 3{1}  [1 2 4 5 6]*) | ([1 2 4 5 6]* 3{1}  [1 2 4 5 6]*) | ([1 2 4 5 6]* 3{1}  [1 2 4 5 6]*) | ([1 2 4 5 6]* 3{1}  [1 2 4 5 6]*) | ([1 2 4 5 6]* 3{1}  [1 2 4 5 6]*) | ([1 2 4 5 6]* 3{1}  [1 2 4 5 6]*) | ([1 2 4 5 6]* 3{1}  [1 2 4 5 6]*) )",
    "( ([1 2 3 5 6]* 4{1} [1 2 3 5 6]{1} [1 2 3 5 6] [1 2 3 5 6]{1} 4{3} [1 2 3 5 6]{1} [1 2 3 5 6] 4{4} [1 2 3 5 6]{1} [1 2 3 5 6] 4{2}  [1 2 3 5 6]*) | ([1 2 3 5 6]* 4{2} [1 2 3 5 6]{3} [1 2 3 5 6] 4{3} [1 2 3 5 6]{2} [1 2 3 5 6] [1 2 3 5 6]{1} 4{2} [1 2 3 5 6]{2} [1 2 3 5 6] [1 2 3 5 6]{1} 4{3}  [1 2 3 5 6]*) | ([1 2 3 5 6]* 4{2} [1 2 3 5 6] [1 2 3 5 6]{1} 4{4} [1 2 3 5 6] [1 2 3 5 6]{1} 4{3} [1 2 3 5 6]{1} [1 2 3 5 6] [1 2 3 5 6]{1} 4{1}  [1 2 3 5 6]*) | ([1 2 3 5 6]* 4{3} [1 2 3 5 6]{1} [1 2 3 5 6] [1 2 3 5 6]{2} 4{2} [1 2 3 5 6]{1} [1 2 3 5 6] [1 2 3 5 6]{2} 4{3} [1 2 3 5 6] [1 2 3 5 6]{3} 4{2}  [1 2 3 5 6]*) | ([1 2 3 5 6]* 4{1} [1 2 3 5 6]{3} [1 2 3 5 6] [1 2 3 5 6]{1} 4{3} [1 2 3 5 6]{1} [1 2 3 5 6] [1 2 3 5 6]{1} 4{4} [1 2 3 5 6] [1 2 3 5 6]{3} 4{2}  [1 2 3 5 6]*) | ([1 2 3 5 6]* 4{2} [1 2 3 5 6] [1 2 3 5 6]{2} 4{3} [1 2 3 5 6] [1 2 3 5 6]{2} 4{2} [1 2 3 5 6]{1} [1 2 3 5 6] [1 2 3 5 6]{1} 4{3}  [1 2 3 5 6]*) | ([1 2 3 5 6]* 4{2} [1 2 3 5 6]{3} [1 2 3 5 6] 4{4} [1 2 3 5 6]{1} [1 2 3 5 6] [1 2 3 5 6]{1} 4{3} [1 2 3 5 6]{1} [1 2 3 5 6] [1 2 3 5 6]{3} 4{1}  [1 2 3 5 6]*) | ([1 2 3 5 6]* 4{3} [1 2 3 5 6]{1} [1 2 3 5 6] [1 2 3 5 6]{1} 4{2} [1 2 3 5 6]{2} [1 2 3 5 6] 4{3} [1 2 3 5 6]{2} [1 2 3 5 6] 4{2}  [1 2 3 5 6]*) )",
    "( ([1 2 3 4 6]* 5{1} [1 2 3 4 6] [1 2 3 4 6]{4} 5{1} [1 2 3 4 6] [1 2 3 4 6]{4} 5{1} [1 2 3 4 6] [1 2 3 4 6]{4} 5{1} [1 2 3 4 6] [1 2 3 4 6]{2} 5{3}  [1 2 3 4 6]*) | ([1 2 3 4 6]* 5{1} [1 2 3 4 6]{4} [1 2 3 4 6] 5{1} [1 2 3 4 6]{4} [1 2 3 4 6] 5{5}  [1 2 3 4 6]*) | ([1 2 3 4 6]* 5{3} [1 2 3 4 6]{2} [1 2 3 4 6] 5{1} [1 2 3 4 6]{4} [1 2 3 4 6] 5{1} [1 2 3 4 6]{4} [1 2 3 4 6] 5{1} [1 2 3 4 6]{4} [1 2 3 4 6] 5{1}  [1 2 3 4 6]*) | ([1 2 3 4 6]* 5{5} [1 2 3 4 6] [1 2 3 4 6]{4} 5{1} [1 2 3 4 6] [1 2 3 4 6]{4} 5{1}  [1 2 3 4 6]*) | ([1 2 3 4 6]* 5{1} [1 2 3 4 6]{4} [1 2 3 4 6] 5{1} [1 2 3 4 6]{4} [1 2 3 4 6] 5{1} [1 2 3 4 6]{4} [1 2 3 4 6] 5{1} [1 2 3 4 6]{4} [1 2 3 4 6] 5{3}  [1 2 3 4 6]*) | ([1 2 3 4 6]* 5{1} [1 2 3 4 6] [1 2 3 4 6]{4} 5{1} [1 2 3 4 6] 5{5}  [1 2 3 4 6]*) | ([1 2 3 4 6]* 5{3} [1 2 3 4 6] [1 2 3 4 6]{4} 5{1} [1 2 3 4 6] [1 2 3 4 6]{4} 5{1} [1 2 3 4 6] [1 2 3 4 6]{4} 5{1} [1 2 3 4 6] [1 2 3 4 6]{4} 5{1}  [1 2 3 4 6]*) | ([1 2 3 4 6]* 5{5} [1 2 3 4 6] 5{1} [1 2 3 4 6]{4} [1 2 3 4 6] 5{1}  [1 2 3 4 6]*) )",
];
